data/benchmarks/bayes/90-17-2-q.cnf
p cnf 1377 1231
c weights 0.222453 0.777547 1 1 1 1 1 1 1 1 1 1 1 1 1 1 1 1 1 1 1 1 1 1 1 1 1 1 1 1 1 1 1 1 1 1 1 1 1 1 1 1 1 1 1 1 1 1 1 1 1 1 1 1 1 1 1 1 1 1 1 1 1 1 1 1 1 1 1 1 1 1 1 1 1 1 1 1 1 1 1 1 1 1 1 1 1 1 1 1 1 1 1 1 1 1 1 1 1 1 1 1 1 1 1 1 1 1 1 1 1 1 1 1 1 1 1 1 1 1 1 1 1 1 1 1 1 1 1 1 1 1 1 1 1 1 1 1 1 1 1 1 1 1 1 1 1 1 1 1 1 1 1 1 1 1 1 1 1 1 1 1 1 1 1 1 1 1 1 1 1 1 1 1 1 1 1 1 1 1 1 1 1 1 1 1 1 1 1 1 1 1 1 1 1 1 1 1 1 1 1 1 1 1 1 1 1 1 1 1 1 1 1 1 1 1 1 1 1 1 1 1 1 1 1 1 1 1 1 1 1 1 1 1 1 1 1 1 1 1 1 1 1 1 1 1 1 1 1 1 1 1 1 1 1 1 1 1 1 1 1 1 1 1 1 1 1 1 1 1 1 1 1 1 1 1 1 1 1 1 1 1 1 1 1 1 1 1 1 1 1 1 1 1 1 1 1 1 1 1 1 1 1 1 1 1 1 1 1 1 1 1 1 1 1 1 1 1 1 1 1 1 1 1 1 1 1 1 1 1 1 1 1 1 1 1 1 1 1 1 1 1 1 1 1 1 1 1 1 1 1 1 1 1 1 1 1 1 1 1 1 1 1 1 1 1 1 1 1 1 1 1 1 1 1 1 1 1 1 1 1 1 1 1 1 1 1 1 1 1 1 1 1 1 1 1 1 1 1 1 1 1 1 1 1 1 1 1 1 1 1 1 1 1 1 1 1 1 1 1 1 1 1 1 1 1 1 1 1 1 1 1 1 1 1 1 1 1 1 1 1 1 1 1 1 1 1 1 1 1 1 1 1 1 1 1 1 1 1 1 1 1 1 1 1 1 1 1 1 1 1 1 1 1 1 1 1 1 1 1 1 1 1 1 1 1 1 1 1 1 1 1 1 1 1 1 1 1 1 1 1 1 1 1 1 1 1 1 1 1 1 1 1 1 1 1 1 1 1 1 1 1 1 1 1 1 1 1 1 1 1 1 1 1 1 1 1 1 1 1 1 1 1 1 1 1 1 1 1 1 1 1 1 1 1 1 1 1 1 1 1 1 1 1 1 1 1 1 1 1 1 1 1 1 1 1 1 1 0.901589 0.09841100000000003 0.344717 0.6552830000000001 0.5 0.5 0.5 0.5 0.5 0.5 0.5 0.5 0.5 0.5 0.5 0.5 0.5 0.5 0.5 0.5 0.778002 0.22199800000000003 0.344498 0.655502 0.531098 0.46890200000000004 0.22291 0.7770900000000001 0.5 0.5 0.5 0.5 0.5 0.5 0.5 0.5 0.5 0.5 0.5 0.5 0.5 0.5 0.5 0.5 0.5 0.5 0.5 0.5 0.5 0.5 0.5 0.5 0.5 0.5 0.5 0.5 0.5 0.5 0.5 0.5 0.5 0.5 0.5 0.5 0.5 0.5 0.5 0.5 0.5 0.5 0.5 0.5 0.5 0.5 0.5 0.5 0.5 0.5 0.5 0.5 0.5 0.5 0.5 0.5 0.953893 0.04610700000000001 0.259566 0.740434 0.351042 0.6489579999999999 0.464863 0.535137 0.0478898 0.9521102 0.708275 0.291725 0.469711 0.530289 0.726952 0.27304799999999996 0.5 0.5 0.5 0.5 0.5 0.5 0.5 0.5 0.5 0.5 0.5 0.5 0.5 0.5 0.5 0.5 0.5 0.5 0.5 0.5 0.5 0.5 0.5 0.5 0.5 0.5 0.5 0.5 0.5 0.5 0.5 0.5 0.5 0.5 0.5 0.5 0.5 0.5 0.5 0.5 0.5 0.5 0.5 0.5 0.5 0.5 0.5 0.5 0.5 0.5 0.5 0.5 0.5 0.5 0.5 0.5 0.5 0.5 0.5 0.5 0.5 0.5 0.5 0.5 0.698282 0.30171800000000004 0.593756 0.40624400000000005 0.448736 0.551264 0.283929 0.716071 0.5 0.5 0.5 0.5 0.5 0.5 0.5 0.5 0.5 0.5 0.5 0.5 0.5 0.5 0.5 0.5 0.5 0.5 0.5 0.5 0.5 0.5 0.5 0.5 0.5 0.5 0.5 0.5 0.5 0.5 0.5 0.5 0.5 0.5 0.5 0.5 0.5 0.5 0.5 0.5 0.5 0.5 0.5 0.5 0.5 0.5 0.5 0.5 0.5 0.5 0.5 0.5 0.5 0.5 0.5 0.5 0.5 0.5 0.5 0.5 0.875299 0.12470099999999995 0.319486 0.6805140000000001 0.31042 0.6895800000000001 0.852827 0.147173 0.5 0.5 0.5 0.5 0.5 0.5 0.5 0.5 0.5 0.5 0.5 0.5 0.5 0.5 0.5 0.5 0.5 0.5 0.5 0.5 0.5 0.5 0.5 0.5 0.5 0.5 0.5 0.5 0.5 0.5 0.5 0.5 0.5 0.5 0.5 0.5 0.5 0.5 0.5 0.5 0.5 0.5 0.5 0.5 0.5 0.5 0.5 0.5 0.495948 0.504052 0.937488 0.06251200000000001 0.78097 0.21902999999999995 0.873658 0.12634199999999995 0.5 0.5 0.5 0.5 0.5 0.5 0.5 0.5 0.5 0.5 0.5 0.5 0.5 0.5 0.5 0.5 0.0383296 0.9616704 0.936856 0.06314399999999998 0.809276 0.190724 0.786546 0.21345400000000003 0.5 0.5 0.5 0.5 0.5 0.5 0.5 0.5 0.5 0.5 0.5 0.5 0.5 0.5 0.5 0.5 0.5 0.5 0.5 0.5 0.5 0.5 0.5 0.5 0.5 0.5 0.5 0.5 0.5 0.5 0.5 0.5 0.5 0.5 0.5 0.5 0.5 0.5 0.5 0.5 0.5 0.5 0.5 0.5 0.250142 0.749858 0.74084 0.25915999999999995 0.841397 0.15860300000000005 0.57131 0.42869 0.5 0.5 0.5 0.5 0.5 0.5 0.5 0.5 0.5 0.5 0.5 0.5 0.5 0.5 0.5 0.5 0.5 0.5 0.5 0.5 0.5 0.5 0.5 0.5 0.5 0.5 0.5 0.5 0.5 0.5 0.5 0.5 0.5 0.5 0.5 0.5 0.5 0.5 0.5 0.5 0.5 0.5 0.5 0.5 0.5 0.5 0.5 0.5 0.5 0.5 0.5 0.5 0.5 0.5 0.5 0.5 0.5 0.5 0.5 0.5 0.5 0.5 0.5 0.5 0.5 0.5 0.5 0.5 0.5 0.5 0.5 0.5 0.5 0.5 0.5 0.5 0.5 0.5 0.5 0.5 0.5 0.5 0.5 0.5 0.5 0.5 0.5 0.5 0.5 0.5 0.5 0.5 0.5 0.5 0.5 0.5 0.5 0.5 0.5 0.5 0.5 0.5 0.5 0.5 0.5 0.5 0.5 0.5 0.0548551 0.9451449 0.584949 0.41505099999999995 0.118439 0.881561 0.491073 0.508927 0.5 0.5 0.5 0.5 0.5 0.5 0.5 0.5 0.424861 0.5751390000000001 0.905516 0.09448400000000001 0.371581 0.6284190000000001 0.241977 0.758023 0.5 0.5 0.5 0.5 0.5 0.5 0.5 0.5 0.269874 0.730126 0.750777 0.24922299999999997 0.726132 0.273868 0.459486 0.5405139999999999 0.208166 0.791834 0.244183 0.755817 0.646773 0.35322699999999996 0.849787 0.15021300000000004 0.5 0.5 0.5 0.5 0.5 0.5 0.5 0.5 0.5 0.5 0.5 0.5 0.5 0.5 0.5 0.5 0.5 0.5 0.5 0.5 0.5 0.5 0.5 0.5 0.5 0.5 0.5 0.5 0.5 0.5 0.5 0.5 0.5 0.5 0.5 0.5 0.5 0.5 0.5 0.5 0.5 0.5 0.5 0.5 0.5 0.5 0.5 0.5 0.5 0.5 0.5 0.5 0.5 0.5 0.5 0.5 0.5 0.5 0.5 0.5 0.5 0.5 0.5 0.5 0.5 0.5 0.5 0.5 0.5 0.5 0.5 0.5 0.5 0.5 0.5 0.5 0.5 0.5 0.5 0.5 0.5 0.5 0.5 0.5 0.5 0.5 0.5 0.5 0.5 0.5 0.5 0.5 0.5 0.5 0.5 0.5 0.5 0.5 0.5 0.5 0.5 0.5 0.5 0.5 0.5 0.5 0.5 0.5 0.5 0.5 0.5 0.5 0.5 0.5 0.5 0.5 0.5 0.5 0.5 0.5 0.5 0.5 0.5 0.5 0.5 0.5 0.5 0.5 0.5 0.5 0.5 0.5 0.962975 0.037024999999999975 0.354436 0.645564 0.499611 0.500389 0.305443 0.694557 0.0714705 0.9285295 0.0874265 0.9125735 0.68812 0.31188000000000005 0.277001 0.722999 0.5 0.5 0.5 0.5 0.5 0.5 0.5 0.5 0.214915 0.785085 0.911468 0.08853200000000006 0.077256 0.922744 0.0609202 0.9390798 0.796504 0.203496 0.430526 0.569474 0.115875 0.884125 0.661533 0.33846699999999996 0.5 0.5 0.5 0.5 0.5 0.5 0.5 0.5 0.5 0.5 0.5 0.5 0.5 0.5 0.5 0.5 0.5 0.5 0.5 0.5 0.5 0.5 0.5 0.5 0.5 0.5 0.5 0.5 0.5 0.5 0.5 0.5 0.5 0.5 0.5 0.5 0.5 0.5 0.5 0.5 0.5 0.5 0.5 0.5 0.520519 0.47948100000000005 0.35562 0.64438 0.625914 0.37408600000000003 0.198746 0.801254 0.5 0.5 0.5 0.5 0.5 0.5 0.5 0.5 0.5 0.5 0.5 0.5 0.5 0.5 0.5 0.5 0.5 0.5 0.5 0.5 0.5 0.5 0.5 0.5 0.5 0.5 0.5 0.5 0.5 0.5 0.5 0.5 0.5 0.5 0.5 0.5 0.5 0.5 0.5 0.5 0.5 0.5 0.5 0.5 0.5 0.5 0.5 0.5 0.5 0.5 0.5 0.5 0.5 0.5 0.5 0.5 0.5 0.5 0.5 0.5 0.5 0.5 0.5 0.5 0.5 0.5 0.5 0.5 0.5 0.5 0.5 0.5 0.5 0.5 0.5 0.5 0.5 0.5 0.5 0.5 0.215812 0.784188 0.655061 0.344939 0.205941 0.794059 0.317413 0.682587 0.5 0.5 0.5 0.5 0.5 0.5 0.5 0.5 0.5 0.5 0.5 0.5 0.5 0.5 0.5 0.5 0.5 0.5 0.5 0.5 0.5 0.5 0.5 0.5 0.5 0.5 0.5 0.5 0.252188 0.7478119999999999 0.889315 0.11068500000000003 0.697516 0.302484 0.991464 0.008535999999999988 0.5 0.5 0.5 0.5 0.5 0.5 0.5 0.5 0.5 0.5 0.5 0.5 0.5 0.5 0.5 0.5 0.5 0.5 0.5 0.5 0.5 0.5 0.5 0.5 0.5 0.5 0.5 0.5 0.5 0.5 0.5 0.5 0.5 0.5 0.5 0.5 0.5 0.5 0.5 0.5 0.5 0.5 0.5 0.5 0.5 0.5 0.5 0.5 0.5 0.5 0.5 0.5 0.5 0.5 0.5 0.5 0.5 0.5 0.5 0.5 0.5 0.5 0.5 0.5 0.5 0.5 0.5 0.5 0.5 0.5 0.5 0.5 0.5 0.5 0.5 0.5 0.5 0.5 0.5 0.5 0.5 0.5 0.5 0.5 0.5 0.5 0.5 0.5 0.5 0.5 0.5 0.5 0.5 0.5 0.5 0.5 0.5 0.5 0.5 0.5 0.5 0.5 0.5 0.5 0.5 0.5 0.5 0.5 0.5 0.5 0.5 0.5 0.5 0.5 0.5 0.5 0.5 0.5 0.5 0.5 0.5 0.5 0.5 0.5 0.5 0.5 0.5 0.5 0.5 0.5 0.5 0.5 0.5 0.5 0.5 0.5 0.5 0.5 0.5 0.5 0.5 0.5 0.5 0.5 0.5 0.5 0.5 0.5 0.5 0.5 0.5 0.5 0.5 0.5 0.5 0.5 0.5 0.5 0.5 0.5 0.5 0.5 0.5 0.5 0.5 0.5 0.5 0.5 0.5 0.5 0.5 0.5 0.5 0.5 0.5 0.5 0.5 0.5 0.5 0.5 0.5 0.5 0.5 0.5 0.5 0.5 0.5 0.5 0.5 0.5 0.5 0.5 0.5 0.5 0.5 0.5 0.321438 0.678562 0.0602948 0.9397052 0.998623 0.0013769999999999616 0.1855 0.8145 0.5 0.5 0.5 0.5 0.5 0.5 0.5 0.5 0.5 0.5 0.5 0.5 0.5 0.5 0.5 0.5 0.5 0.5 0.5 0.5 0.5 0.5 0.5 0.5 0.5 0.5 0.5 0.5 0.5 0.5 0.5 0.5 0.5 0.5 0.5 0.5 0.5 0.5 0.5 0.5 0.5 0.5 0.5 0.5 0.5 0.5 0.5 0.5 0.5 0.5 0.5 0.5 0.5 0.5 0.5 0.5 0.5 0.5 0.5 0.5 0.5 0.5 0.5 0.5 0.5 0.5 0.5 0.5 0.5 0.5 0.5 0.5 0.5 0.5 0.5 0.5 0.5 0.5 0.5 0.5 0.5 0.5 0.5 0.5 0.5 0.5 0.5 0.5 0.5 0.5 0.5 0.5 0.5 0.5 0.5 0.5 0.5 0.5 0.5 0.5 0.5 0.5 0.5 0.5 0.5 0.5 0.5 0.5 0.5 0.5 0.5 0.5 0.5 0.5 0.5 0.5 0.5 0.5 0.5 0.5 0.5 0.5 0.5 0.5 0.5 0.5 0.5 0.5 0.5 0.5 0.5 0.5 0.5 0.5 0.5 0.5 0.5 0.5 0.5 0.5 0.5 0.5 0.5 0.5 0.5 0.5 0.5 0.5 0.5 0.5 0.5 0.5 0.5 0.5 0.5 0.5 0.5 0.5 0.5 0.5 0.5 0.5 0.5 0.5 0.260683 0.739317 0.0460518 0.9539482 0.189714 0.8102860000000001 0.761491 0.23850899999999997 0.5 0.5 0.5 0.5 0.5 0.5 0.5 0.5 0.5 0.5 0.5 0.5 0.5 0.5 0.5 0.5 0.5 0.5 0.5 0.5 0.5 0.5 0.5 0.5 0.5 0.5 0.5 0.5 0.015923 0.984077 0.648605 0.351395 0.773517 0.226483 0.224393 0.7756069999999999 0.5 0.5 0.5 0.5 0.5 0.5 0.5 0.5 0.5 0.5 0.5 0.5 0.5 0.5 0.5 0.5 0.5 0.5 0.5 0.5 0.5 0.5 0.5 0.5 0.5 0.5 0.5 0.5 0.5 0.5 0.5 0.5 0.5 0.5 0.5 0.5 0.5 0.5 0.5 0.5 0.175545 0.8244549999999999 0.24258 0.75742 0.707521 0.29247900000000004 0.399937 0.600063 0.5 0.5 0.5 0.5 0.5 0.5 0.5 0.5 0.712588 0.287412 0.57919 0.42081 0.0928661 0.9071339 0.831013 0.168987 0.999565 0.0004349999999999632 0.551848 0.448152 0.520113 0.47988699999999995 0.139636 0.860364 0.5 0.5 0.5 0.5 0.5 0.5 0.5 0.5 0.5 0.5 0.5 0.5 0.5 0.5 0.5 0.5 0.5 0.5 0.5 0.5 0.5 0.5 0.5 0.5 0.5 0.5 0.5 0.5 0.5 0.5 0.5 0.5 0.5 0.5 0.5 0.5 0.5 0.5 0.5 0.5 0.5 0.5 0.5 0.5 0.5 0.5 0.5 0.5 0.5 0.5 0.5 0.5 0.5 0.5 0.5 0.5 0.5 0.5 0.5 0.5 0.5 0.5 0.5 0.5 0.5 0.5 0.5 0.5 0.5 0.5 0.5 0.5 0.5 0.5 0.5 0.5 0.5 0.5 0.5 0.5 0.5 0.5 0.5 0.5 0.5 0.5 0.5 0.5 0.5 0.5 0.5 0.5 0.0559546 0.9440454 0.507402 0.492598 0.258917 0.7410829999999999 0.982158 0.017842000000000025 0.5 0.5 0.5 0.5 0.5 0.5 0.5 0.5 0.910285 0.08971499999999999 0.0575002 0.9424998 0.269798 0.730202 0.891322 0.10867800000000005 0.5 0.5 0.5 0.5 0.5 0.5 0.5 0.5 0.5 0.5 0.5 0.5 0.5 0.5 0.5 0.5 0.5 0.5 0.5 0.5 0.5 0.5 0.5 0.5 0.5 0.5 0.5 0.5 0.5 0.5 0.5 0.5 0.5 0.5 0.5 0.5 0.5 0.5 0.5 0.5 0.5 0.5 0.5 0.5 0.5 0.5 0.5 0.5 0.5 0.5 0.5 0.5 0.5 0.5 0.5 0.5 0.5 0.5 0.5 0.5 0.5 0.5 0.5 0.5 0.5 0.5 0.5 0.5 0.5 0.5 0.5 0.5 0.5 0.5 0.5 0.5 0.5 0.5 0.5 0.5 0.5 0.5 0.5 0.5 0.5 0.5 0.5 0.5 0.5 0.5 0.5 0.5 0.5 0.5 0.5 0.5 0.5 0.5 0.5 0.5 0.5 0.5 0.5 0.5 0.5 0.5 0.5 0.5 0.0377846 0.9622154 0.293593 0.706407 0.524922 0.475078 0.196285 0.803715 0.5 0.5 0.5 0.5 0.5 0.5 0.5 0.5 0.5 0.5 0.5 0.5 0.5 0.5 0.5 0.5 0.5 0.5 0.5 0.5 0.5 0.5 0.5 0.5 0.5 0.5 0.5 0.5 0.5 0.5 0.5 0.5 0.380125 0.619875 0.986017 0.013982999999999968 0.68901 0.31099 0.118246 0.881754 0.726795 0.27320500000000003 0.41184 0.58816 0.459014 0.540986 0.92308 0.07691999999999999 0.5 0.5 0.5 0.5 0.5 0.5 0.5 0.5 0.5 0.5 0.5 0.5 0.5 0.5 0.5 0.5 0.5 0.5 0.5 0.5 0.5 0.5 0.5 0.5 0.5 0.5 0.5 0.5 0.5 0.5 0.5 0.5 0.5 0.5 0.5 0.5 0.5 0.5 0.5 0.5 0.5 0.5 0.5 0.5 0.5 0.5 0.5 0.5 0.5 0.5 0.5 0.5 0.5 0.5 0.5 0.5 0.5 0.5 0.5 0.5 0.5 0.5 0.5 0.5 0.5 0.5 0.5 0.5 0.5 0.5 0.5 0.5 0.5 0.5 0.5 0.5 0.5 0.5 0.5 0.5 0.5 0.5 0.5 0.5 0.5 0.5 0.5 0.5 0.5 0.5 0.5 0.5 0.5 0.5 0.5 0.5 0.5 0.5 0.5 0.5 0.5 0.5 0.5 0.5 0.5 0.5 0.5 0.5 0.691401 0.30859899999999996 0.820763 0.17923699999999998 0.928764 0.07123599999999997 0.636342 0.36365800000000004 0.5 0.5 0.5 0.5 0.5 0.5 0.5 0.5 0.5 0.5 0.5 0.5 0.5 0.5 0.5 0.5 0.5 0.5 0.5 0.5 0.5 0.5 0.5 0.5 0.5 0.5 0.5 0.5 0.5 0.5 0.5 0.5 0.5 0.5 0.5 0.5 0.0785851 0.9214149 0.96467 0.03532999999999997 0.930419 0.069581 0.0445444 0.9554556 0.5 0.5 0.5 0.5 0.5 0.5 0.5 0.5 0.5 0.5 0.5 0.5 0.5 0.5 0.5 0.5 0.5 0.5 0.5 0.5 0.5 0.5 0.5 0.5 0.5 0.5 0.5 0.5 0.5 0.5 0.5 0.5 0.5 0.5 0.5 0.5 0.5 0.5 0.5 0.5 0.5 0.5 0.5 0.5 0.5 0.5 0.5 0.5 0.5 0.5 0.5 0.5 0.5 0.5 0.5 0.5 0.5 0.5 0.5 0.5 0.5 0.5 0.5 0.5 0.115538 0.884462 0.160847 0.839153 0.721945 0.27805500000000005 0.907632 0.092368 0.5 0.5 0.5 0.5 0.5 0.5 0.5 0.5 0.5 0.5 0.5 0.5 0.5 0.5 0.5 0.5 0.5 0.5 0.5 0.5 0.5 0.5 0.5 0.5 0.5 0.5 0.5 0.5 0.5 0.5 0.5 0.5 0.5 0.5 0.5 0.5 0.5 0.5 0.5 0.5 0.5 0.5 0.5 0.5 0.5 0.5 0.5 0.5 0.5 0.5 0.5 0.5 0.5 0.5 0.5 0.5 0.5 0.5 0.5 0.5 0.5 0.5 0.5 0.5 0.5 0.5 0.5 0.5 0.5 0.5 0.5 0.5 0.5 0.5 0.5 0.5 0.937898 0.06210199999999999 0.0437051 0.9562949000000001 0.784036 0.21596400000000004 0.135901 0.864099 0.5 0.5 0.5 0.5 0.5 0.5 0.5 0.5 0.5 0.5 0.5 0.5 0.5 0.5 0.5 0.5 0.5 0.5 0.5 0.5 0.5 0.5 0.5 0.5 0.5 0.5 0.5 0.5 0.5 0.5 0.5 0.5 0.5 0.5 0.5 0.5 0.5 0.5 0.5 0.5 0.5 0.5 0.5 0.5 0.5 0.5 0.5 0.5 0.5 0.5 0.5 0.5 0.5 0.5 0.5 0.5 0.5 0.5 0.5 0.5 0.5 0.5 0.5 0.5 0.5 0.5 0.5 0.5 0.5 0.5 0.5 0.5 0.5 0.5 0.5 0.5 0.5 0.5 0.5 0.5 0.5 0.5 0.5 0.5 0.5 0.5 0.5 0.5 0.5 0.5 0.5 0.5 0.5 0.5 0.5 0.5 0.5 0.5 0.5 0.5 0.5 0.5 0.5 0.5 0.5 0.5 0.5 0.5 0.5 0.5 0.5 0.5 0.5 0.5 0.5 0.5 0.5 0.5 0.5 0.5 0.5 0.5 0.5 0.5 0.5 0.5 0.5 0.5 0.5 0.5 0.5 0.5 0.5 0.5 0.5 0.5 0.5 0.5 0.5 0.5 0.5 0.5 0.5 0.5 0.5 0.5 0.5 0.5 0.5 0.5 0.5 0.5 0.5 0.5 0.5 0.5 0.5 0.5 0.5 0.5 0.5 0.5 0.5 0.5 0.5 0.5 0.5 0.5 0.5 0.5 0.5 0.5 0.5 0.5 0.5 0.5 0.5 0.5 0.5 0.5 0.5 0.5 0.5 0.5 0.5 0.5 0.5 0.5 0.169053 0.830947 0.693117 0.306883 0.575485 0.424515 0.501767 0.49823300000000004 0.5 0.5 0.5 0.5 0.5 0.5 0.5 0.5 0.5 0.5 0.5 0.5 0.5 0.5 0.5 0.5 0.5 0.5 0.5 0.5 0.5 0.5 0.5 0.5
-1 -290 2 0
-1 290 -2 0
1 -291 2 0
1 291 -2 0
-2 -3 0
2 3 0
-3 4 0
3 -4 0
-4 5 0
4 -5 0
-5 -6 0
5 6 0
-6 -300 7 0
-6 300 -7 0
6 -301 7 0
6 301 -7 0
-7 -302 8 0
-7 302 -8 0
7 -303 8 0
7 303 -8 0
-8 9 0
8 -9 0
-9 10 0
9 -10 0
-10 -11 0
10 11 0
-11 12 0
11 -12 0
-12 13 0
12 -13 0
-13 -14 0
13 14 0
-14 15 0
14 -15 0
-15 -16 0
15 16 0
-16 17 0
16 -17 0
-1 -18 0
1 18 0
-18 -2 -19 0
-18 2 19 0
18 -2 19 0
18 2 19 0
-19 -3 20 0
-19 3 -20 0
19 -3 -20 0
19 3 20 0
-20 -4 -332 21 0
-20 -4 332 -21 0
-20 4 -333 21 0
-20 4 333 -21 0
20 -4 -334 21 0
20 -4 334 -21 0
20 4 -335 21 0
20 4 335 -21 0
-21 -5 -336 22 0
-21 -5 336 -22 0
-21 5 -337 22 0
-21 5 337 -22 0
21 -5 -338 22 0
21 -5 338 -22 0
21 5 -339 22 0
21 5 339 -22 0
-22 -6 23 0
-22 6 -23 0
22 -6 23 0
22 6 -23 0
-23 -7 24 0
-23 7 24 0
23 -7 24 0
23 7 -24 0
-24 -8 -25 0
-24 8 -25 0
24 -8 -25 0
24 8 25 0
-25 -9 -26 0
-25 9 26 0
25 -9 26 0
25 9 -26 0
-26 -10 -27 0
-26 10 27 0
26 -10 -27 0
26 10 -27 0
-27 -11 -28 0
-27 11 28 0
27 -11 -28 0
27 11 28 0
-28 -12 29 0
-28 12 -29 0
28 -12 29 0
28 12 -29 0
-29 -13 30 0
-29 13 -30 0
29 -13 30 0
29 13 -30 0
-30 -14 -372 31 0
-30 -14 372 -31 0
-30 14 -373 31 0
-30 14 373 -31 0
30 -14 -374 31 0
30 -14 374 -31 0
30 14 -375 31 0
30 14 375 -31 0
-31 -15 -32 0
-31 15 -32 0
31 -15 -32 0
31 15 32 0
-32 -16 -33 0
-32 16 33 0
32 -16 -33 0
32 16 -33 0
-33 -17 -34 0
-33 17 -34 0
33 -17 34 0
33 17 -34 0
-18 -35 0
18 35 0
-35 -19 -36 0
-35 19 36 0
35 -19 -36 0
35 19 36 0
-36 -20 -37 0
-36 20 37 0
36 -20 -37 0
36 20 -37 0
-37 -21 -38 0
-37 21 38 0
37 -21 -38 0
37 21 -38 0
-38 -22 -39 0
-38 22 -39 0
38 -22 -39 0
38 22 39 0
-39 -23 -406 40 0
-39 -23 406 -40 0
-39 23 -407 40 0
-39 23 407 -40 0
39 -23 -408 40 0
39 -23 408 -40 0
39 23 -409 40 0
39 23 409 -40 0
-40 -24 -41 0
-40 24 41 0
40 -24 -41 0
40 24 -41 0
-41 -25 -42 0
-41 25 -42 0
41 -25 42 0
41 25 42 0
-42 -26 43 0
-42 26 -43 0
42 -26 43 0
42 26 43 0
-43 -27 44 0
-43 27 44 0
43 -27 -44 0
43 27 44 0
-44 -28 -45 0
-44 28 -45 0
44 -28 -45 0
44 28 45 0
-45 -29 46 0
-45 29 46 0
45 -29 -46 0
45 29 46 0
-46 -30 -434 47 0
-46 -30 434 -47 0
-46 30 -435 47 0
-46 30 435 -47 0
46 -30 -436 47 0
46 -30 436 -47 0
46 30 -437 47 0
46 30 437 -47 0
-47 -31 48 0
-47 31 48 0
47 -31 -48 0
47 31 -48 0
-48 -32 -49 0
-48 32 49 0
48 -32 -49 0
48 32 49 0
-49 -33 -446 50 0
-49 -33 446 -50 0
-49 33 -447 50 0
-49 33 447 -50 0
49 -33 -448 50 0
49 -33 448 -50 0
49 33 -449 50 0
49 33 449 -50 0
-50 -34 51 0
-50 34 -51 0
50 -34 -51 0
50 34 51 0
-35 52 0
35 -52 0
-52 -36 53 0
-52 36 -53 0
52 -36 -53 0
52 36 53 0
-53 -37 -54 0
-53 37 54 0
53 -37 54 0
53 37 54 0
-54 -38 55 0
-54 38 -55 0
54 -38 -55 0
54 38 -55 0
-55 -39 56 0
-55 39 56 0
55 -39 56 0
55 39 -56 0
-56 -40 -472 57 0
-56 -40 472 -57 0
-56 40 -473 57 0
-56 40 473 -57 0
56 -40 -474 57 0
56 -40 474 -57 0
56 40 -475 57 0
56 40 475 -57 0
-57 -41 58 0
-57 41 -58 0
57 -41 -58 0
57 41 58 0
-58 -42 59 0
-58 42 59 0
58 -42 59 0
58 42 -59 0
-59 -43 -60 0
-59 43 -60 0
59 -43 -60 0
59 43 60 0
-60 -44 61 0
-60 44 61 0
60 -44 61 0
60 44 -61 0
-61 -45 62 0
-61 45 -62 0
61 -45 -62 0
61 45 62 0
-62 -46 63 0
-62 46 -63 0
62 -46 -63 0
62 46 -63 0
-63 -47 -64 0
-63 47 -64 0
63 -47 64 0
63 47 64 0
-64 -48 -65 0
-64 48 -65 0
64 -48 65 0
64 48 65 0
-65 -49 66 0
-65 49 -66 0
65 -49 -66 0
65 49 -66 0
-66 -50 -67 0
-66 50 -67 0
66 -50 67 0
66 50 67 0
-67 -51 68 0
-67 51 -68 0
67 -51 68 0
67 51 -68 0
-52 69 0
52 -69 0
-69 -53 -70 0
-69 53 70 0
69 -53 70 0
69 53 -70 0
-70 -54 71 0
-70 54 71 0
70 -54 -71 0
70 54 71 0
-71 -55 -530 72 0
-71 -55 530 -72 0
-71 55 -531 72 0
-71 55 531 -72 0
71 -55 -532 72 0
71 -55 532 -72 0
71 55 -533 72 0
71 55 533 -72 0
-72 -56 73 0
-72 56 73 0
72 -56 -73 0
72 56 73 0
-73 -57 -538 74 0
-73 -57 538 -74 0
-73 57 -539 74 0
-73 57 539 -74 0
73 -57 -540 74 0
73 -57 540 -74 0
73 57 -541 74 0
73 57 541 -74 0
-74 -58 75 0
-74 58 75 0
74 -58 -75 0
74 58 75 0
-75 -59 -546 76 0
-75 -59 546 -76 0
-75 59 -547 76 0
-75 59 547 -76 0
75 -59 -548 76 0
75 -59 548 -76 0
75 59 -549 76 0
75 59 549 -76 0
-76 -60 -550 77 0
-76 -60 550 -77 0
-76 60 -551 77 0
-76 60 551 -77 0
76 -60 -552 77 0
76 -60 552 -77 0
76 60 -553 77 0
76 60 553 -77 0
-77 -61 78 0
-77 61 -78 0
77 -61 -78 0
77 61 -78 0
-78 -62 -79 0
-78 62 79 0
78 -62 79 0
78 62 -79 0
-79 -63 -80 0
-79 63 80 0
79 -63 80 0
79 63 80 0
-80 -64 -81 0
-80 64 -81 0
80 -64 81 0
80 64 -81 0
-81 -65 82 0
-81 65 -82 0
81 -65 -82 0
81 65 -82 0
-82 -66 83 0
-82 66 -83 0
82 -66 -83 0
82 66 -83 0
-83 -67 84 0
-83 67 -84 0
83 -67 -84 0
83 67 84 0
-84 -68 -85 0
-84 68 -85 0
84 -68 85 0
84 68 -85 0
-69 86 0
69 -86 0
-86 -70 -87 0
-86 70 -87 0
86 -70 -87 0
86 70 87 0
-87 -71 88 0
-87 71 88 0
87 -71 -88 0
87 71 88 0
-88 -72 89 0
-88 72 -89 0
88 -72 -89 0
88 72 89 0
-89 -73 -90 0
-89 73 90 0
89 -73 90 0
89 73 90 0
-90 -74 -91 0
-90 74 -91 0
90 -74 91 0
90 74 -91 0
-91 -75 -92 0
-91 75 -92 0
91 -75 92 0
91 75 92 0
-92 -76 93 0
-92 76 93 0
92 -76 -93 0
92 76 93 0
-93 -77 94 0
-93 77 -94 0
93 -77 -94 0
93 77 94 0
-94 -78 -620 95 0
-94 -78 620 -95 0
-94 78 -621 95 0
-94 78 621 -95 0
94 -78 -622 95 0
94 -78 622 -95 0
94 78 -623 95 0
94 78 623 -95 0
-95 -79 -624 96 0
-95 -79 624 -96 0
-95 79 -625 96 0
-95 79 625 -96 0
95 -79 -626 96 0
95 -79 626 -96 0
95 79 -627 96 0
95 79 627 -96 0
-96 -80 97 0
-96 80 97 0
96 -80 97 0
96 80 -97 0
-97 -81 -632 98 0
-97 -81 632 -98 0
-97 81 -633 98 0
-97 81 633 -98 0
97 -81 -634 98 0
97 -81 634 -98 0
97 81 -635 98 0
97 81 635 -98 0
-98 -82 -636 99 0
-98 -82 636 -99 0
-98 82 -637 99 0
-98 82 637 -99 0
98 -82 -638 99 0
98 -82 638 -99 0
98 82 -639 99 0
98 82 639 -99 0
-99 -83 -100 0
-99 83 100 0
99 -83 -100 0
99 83 -100 0
-100 -84 -101 0
-100 84 -101 0
100 -84 101 0
100 84 -101 0
-101 -85 102 0
-101 85 -102 0
101 -85 102 0
101 85 102 0
-86 -103 0
86 103 0
-103 -87 -104 0
-103 87 104 0
103 -87 -104 0
103 87 104 0
-104 -88 105 0
-104 88 105 0
104 -88 -105 0
104 88 105 0
-105 -89 -662 106 0
-105 -89 662 -106 0
-105 89 -663 106 0
-105 89 663 -106 0
105 -89 -664 106 0
105 -89 664 -106 0
105 89 -665 106 0
105 89 665 -106 0
-106 -90 107 0
-106 90 107 0
106 -90 107 0
106 90 -107 0
-107 -91 108 0
-107 91 108 0
107 -91 -108 0
107 91 108 0
-108 -92 -109 0
-108 92 -109 0
108 -92 -109 0
108 92 109 0
-109 -93 -110 0
-109 93 110 0
109 -93 -110 0
109 93 -110 0
-110 -94 111 0
-110 94 111 0
110 -94 -111 0
110 94 -111 0
-111 -95 112 0
-111 95 112 0
111 -95 -112 0
111 95 -112 0
-112 -96 113 0
-112 96 113 0
112 -96 -113 0
112 96 113 0
-113 -97 -114 0
-113 97 114 0
113 -97 -114 0
113 97 114 0
-114 -98 -115 0
-114 98 115 0
114 -98 115 0
114 98 115 0
-115 -99 -116 0
-115 99 -116 0
115 -99 116 0
115 99 -116 0
-116 -100 -706 117 0
-116 -100 706 -117 0
-116 100 -707 117 0
-116 100 707 -117 0
116 -100 -708 117 0
116 -100 708 -117 0
116 100 -709 117 0
116 100 709 -117 0
-117 -101 118 0
-117 101 -118 0
117 -101 -118 0
117 101 118 0
-118 -102 119 0
-118 102 119 0
118 -102 -119 0
118 102 119 0
-103 120 0
103 -120 0
-120 -104 121 0
-120 104 121 0
120 -104 -121 0
120 104 -121 0
-121 -105 -724 122 0
-121 -105 724 -122 0
-121 105 -725 122 0
-121 105 725 -122 0
121 -105 -726 122 0
121 -105 726 -122 0
121 105 -727 122 0
121 105 727 -122 0
-122 -106 123 0
-122 106 -123 0
122 -106 -123 0
122 106 -123 0
-123 -107 124 0
-123 107 124 0
123 -107 -124 0
123 107 -124 0
-124 -108 125 0
-124 108 -125 0
124 -108 -125 0
124 108 125 0
-125 -109 -126 0
-125 109 126 0
125 -109 126 0
125 109 126 0
-126 -110 -127 0
-126 110 127 0
126 -110 127 0
126 110 -127 0
-127 -111 -128 0
-127 111 -128 0
127 -111 -128 0
127 111 128 0
-128 -112 129 0
-128 112 129 0
128 -112 -129 0
128 112 129 0
-129 -113 130 0
-129 113 130 0
129 -113 -130 0
129 113 130 0
-130 -114 131 0
-130 114 -131 0
130 -114 131 0
130 114 131 0
-131 -115 -132 0
-131 115 -132 0
131 -115 -132 0
131 115 132 0
-132 -116 133 0
-132 116 133 0
132 -116 -133 0
132 116 -133 0
-133 -117 134 0
-133 117 -134 0
133 -117 -134 0
133 117 134 0
-134 -118 135 0
-134 118 -135 0
134 -118 -135 0
134 118 135 0
-135 -119 -136 0
-135 119 136 0
135 -119 136 0
135 119 136 0
-120 -137 0
120 137 0
-137 -121 -138 0
-137 121 -138 0
137 -121 138 0
137 121 -138 0
-138 -122 -139 0
-138 122 -139 0
138 -122 -139 0
138 122 139 0
-139 -123 140 0
-139 123 140 0
139 -123 140 0
139 123 -140 0
-140 -124 -141 0
-140 124 -141 0
140 -124 141 0
140 124 141 0
-141 -125 -142 0
-141 125 -142 0
141 -125 142 0
141 125 -142 0
-142 -126 -143 0
-142 126 143 0
142 -126 -143 0
142 126 -143 0
-143 -127 -144 0
-143 127 -144 0
143 -127 144 0
143 127 -144 0
-144 -128 145 0
-144 128 145 0
144 -128 145 0
144 128 -145 0
-145 -129 -146 0
-145 129 -146 0
145 -129 -146 0
145 129 146 0
-146 -130 -147 0
-146 130 147 0
146 -130 147 0
146 130 147 0
-147 -131 -826 148 0
-147 -131 826 -148 0
-147 131 -827 148 0
-147 131 827 -148 0
147 -131 -828 148 0
147 -131 828 -148 0
147 131 -829 148 0
147 131 829 -148 0
-148 -132 149 0
-148 132 149 0
148 -132 149 0
148 132 -149 0
-149 -133 150 0
-149 133 -150 0
149 -133 150 0
149 133 -150 0
-150 -134 -151 0
-150 134 151 0
150 -134 -151 0
150 134 151 0
-151 -135 -152 0
-151 135 152 0
151 -135 152 0
151 135 152 0
-152 -136 153 0
-152 136 153 0
152 -136 153 0
152 136 -153 0
-137 -154 0
137 154 0
-154 -138 155 0
-154 138 -155 0
154 -138 -155 0
154 138 155 0
-155 -139 156 0
-155 139 156 0
155 -139 156 0
155 139 -156 0
-156 -140 157 0
-156 140 157 0
156 -140 157 0
156 140 -157 0
-157 -141 -158 0
-157 141 158 0
157 -141 -158 0
157 141 158 0
-158 -142 159 0
-158 142 159 0
158 -142 -159 0
158 142 -159 0
-159 -143 160 0
-159 143 -160 0
159 -143 -160 0
159 143 -160 0
-160 -144 -161 0
-160 144 -161 0
160 -144 -161 0
160 144 161 0
-161 -145 -162 0
-161 145 -162 0
161 -145 -162 0
161 145 162 0
-162 -146 -163 0
-162 146 -163 0
162 -146 -163 0
162 146 163 0
-163 -147 -164 0
-163 147 164 0
163 -147 164 0
163 147 -164 0
-164 -148 -165 0
-164 148 -165 0
164 -148 165 0
164 148 165 0
-165 -149 -166 0
-165 149 -166 0
165 -149 166 0
165 149 -166 0
-166 -150 167 0
-166 150 -167 0
166 -150 167 0
166 150 167 0
-167 -151 -168 0
-167 151 168 0
167 -151 168 0
167 151 168 0
-168 -152 -169 0
-168 152 -169 0
168 -152 169 0
168 152 169 0
-169 -153 -912 170 0
-169 -153 912 -170 0
-169 153 -913 170 0
-169 153 913 -170 0
169 -153 -914 170 0
169 -153 914 -170 0
169 153 -915 170 0
169 153 915 -170 0
-154 -171 0
154 171 0
-171 -155 172 0
-171 155 172 0
171 -155 -172 0
171 155 172 0
-172 -156 173 0
-172 156 173 0
172 -156 -173 0
172 156 -173 0
-173 -157 174 0
-173 157 -174 0
173 -157 174 0
173 157 174 0
-174 -158 -930 175 0
-174 -158 930 -175 0
-174 158 -931 175 0
-174 158 931 -175 0
174 -158 -932 175 0
174 -158 932 -175 0
174 158 -933 175 0
174 158 933 -175 0
-175 -159 -176 0
-175 159 176 0
175 -159 -176 0
175 159 176 0
-176 -160 177 0
-176 160 177 0
176 -160 177 0
176 160 -177 0
-177 -161 178 0
-177 161 178 0
177 -161 -178 0
177 161 178 0
-178 -162 179 0
-178 162 -179 0
178 -162 179 0
178 162 179 0
-179 -163 180 0
-179 163 180 0
179 -163 180 0
179 163 -180 0
-180 -164 -954 181 0
-180 -164 954 -181 0
-180 164 -955 181 0
-180 164 955 -181 0
180 -164 -956 181 0
180 -164 956 -181 0
180 164 -957 181 0
180 164 957 -181 0
-181 -165 182 0
-181 165 -182 0
181 -165 182 0
181 165 -182 0
-182 -166 -962 183 0
-182 -166 962 -183 0
-182 166 -963 183 0
-182 166 963 -183 0
182 -166 -964 183 0
182 -166 964 -183 0
182 166 -965 183 0
182 166 965 -183 0
-183 -167 -966 184 0
-183 -167 966 -184 0
-183 167 -967 184 0
-183 167 967 -184 0
183 -167 -968 184 0
183 -167 968 -184 0
183 167 -969 184 0
183 167 969 -184 0
-184 -168 185 0
-184 168 185 0
184 -168 -185 0
184 168 -185 0
-185 -169 -186 0
-185 169 186 0
185 -169 -186 0
185 169 -186 0
-186 -170 187 0
-186 170 -187 0
186 -170 -187 0
186 170 -187 0
-171 188 0
171 -188 0
-188 -172 189 0
-188 172 -189 0
188 -172 -189 0
188 172 -189 0
-189 -173 -190 0
-189 173 -190 0
189 -173 -190 0
189 173 190 0
-190 -174 -191 0
-190 174 191 0
190 -174 191 0
190 174 191 0
-191 -175 192 0
-191 175 192 0
191 -175 -192 0
191 175 -192 0
-192 -176 -193 0
-192 176 -193 0
192 -176 -193 0
192 176 193 0
-193 -177 -194 0
-193 177 194 0
193 -177 -194 0
193 177 194 0
-194 -178 -195 0
-194 178 -195 0
194 -178 -195 0
194 178 195 0
-195 -179 -196 0
-195 179 196 0
195 -179 -196 0
195 179 196 0
-196 -180 -1016 197 0
-196 -180 1016 -197 0
-196 180 -1017 197 0
-196 180 1017 -197 0
196 -180 -1018 197 0
196 -180 1018 -197 0
196 180 -1019 197 0
196 180 1019 -197 0
-197 -181 198 0
-197 181 -198 0
197 -181 -198 0
197 181 198 0
-198 -182 -1024 199 0
-198 -182 1024 -199 0
-198 182 -1025 199 0
-198 182 1025 -199 0
198 -182 -1026 199 0
198 -182 1026 -199 0
198 182 -1027 199 0
198 182 1027 -199 0
-199 -183 -200 0
-199 183 -200 0
199 -183 -200 0
199 183 200 0
-200 -184 201 0
-200 184 201 0
200 -184 -201 0
200 184 201 0
-201 -185 202 0
-201 185 -202 0
201 -185 202 0
201 185 202 0
-202 -186 203 0
-202 186 203 0
202 -186 -203 0
202 186 -203 0
-203 -187 204 0
-203 187 204 0
203 -187 -204 0
203 187 204 0
-188 -205 0
188 205 0
-205 -189 -206 0
-205 189 -206 0
205 -189 206 0
205 189 206 0
-206 -190 207 0
-206 190 -207 0
206 -190 -207 0
206 190 207 0
-207 -191 208 0
-207 191 -208 0
207 -191 -208 0
207 191 -208 0
-208 -192 -209 0
-208 192 209 0
208 -192 -209 0
208 192 209 0
-209 -193 210 0
-209 193 -210 0
209 -193 210 0
209 193 210 0
-210 -194 211 0
-210 194 211 0
210 -194 -211 0
210 194 -211 0
-211 -195 212 0
-211 195 -212 0
211 -195 -212 0
211 195 -212 0
-212 -196 213 0
-212 196 213 0
212 -196 -213 0
212 196 213 0
-213 -197 -1082 214 0
-213 -197 1082 -214 0
-213 197 -1083 214 0
-213 197 1083 -214 0
213 -197 -1084 214 0
213 -197 1084 -214 0
213 197 -1085 214 0
213 197 1085 -214 0
-214 -198 -215 0
-214 198 -215 0
214 -198 -215 0
214 198 215 0
-215 -199 -216 0
-215 199 216 0
215 -199 -216 0
215 199 216 0
-216 -200 217 0
-216 200 217 0
216 -200 -217 0
216 200 217 0
-217 -201 218 0
-217 201 -218 0
217 -201 -218 0
217 201 218 0
-218 -202 -1102 219 0
-218 -202 1102 -219 0
-218 202 -1103 219 0
-218 202 1103 -219 0
218 -202 -1104 219 0
218 -202 1104 -219 0
218 202 -1105 219 0
218 202 1105 -219 0
-219 -203 -1106 220 0
-219 -203 1106 -220 0
-219 203 -1107 220 0
-219 203 1107 -220 0
219 -203 -1108 220 0
219 -203 1108 -220 0
219 203 -1109 220 0
219 203 1109 -220 0
-220 -204 221 0
-220 204 -221 0
220 -204 221 0
220 204 221 0
-205 -222 0
205 222 0
-222 -206 223 0
-222 206 223 0
222 -206 223 0
222 206 -223 0
-223 -207 224 0
-223 207 -224 0
223 -207 -224 0
223 207 -224 0
-224 -208 225 0
-224 208 225 0
224 -208 -225 0
224 208 -225 0
-225 -209 -226 0
-225 209 226 0
225 -209 -226 0
225 209 226 0
-226 -210 227 0
-226 210 227 0
226 -210 227 0
226 210 -227 0
-227 -211 228 0
-227 211 -228 0
227 -211 -228 0
227 211 228 0
-228 -212 229 0
-228 212 -229 0
228 -212 -229 0
228 212 229 0
-229 -213 -230 0
-229 213 -230 0
229 -213 230 0
229 213 230 0
-230 -214 231 0
-230 214 -231 0
230 -214 231 0
230 214 231 0
-231 -215 -232 0
-231 215 232 0
231 -215 232 0
231 215 -232 0
-232 -216 233 0
-232 216 -233 0
232 -216 233 0
232 216 233 0
-233 -217 234 0
-233 217 -234 0
233 -217 -234 0
233 217 234 0
-234 -218 -1164 235 0
-234 -218 1164 -235 0
-234 218 -1165 235 0
-234 218 1165 -235 0
234 -218 -1166 235 0
234 -218 1166 -235 0
234 218 -1167 235 0
234 218 1167 -235 0
-235 -219 236 0
-235 219 236 0
235 -219 -236 0
235 219 -236 0
-236 -220 -237 0
-236 220 237 0
236 -220 -237 0
236 220 -237 0
-237 -221 -238 0
-237 221 -238 0
237 -221 238 0
237 221 -238 0
-222 239 0
222 -239 0
-239 -223 -240 0
-239 223 -240 0
239 -223 -240 0
239 223 240 0
-240 -224 -1186 241 0
-240 -224 1186 -241 0
-240 224 -1187 241 0
-240 224 1187 -241 0
240 -224 -1188 241 0
240 -224 1188 -241 0
240 224 -1189 241 0
240 224 1189 -241 0
-241 -225 -242 0
-241 225 -242 0
241 -225 -242 0
241 225 242 0
-242 -226 243 0
-242 226 243 0
242 -226 -243 0
242 226 243 0
-243 -227 244 0
-243 227 -244 0
243 -227 -244 0
243 227 244 0
-244 -228 245 0
-244 228 245 0
244 -228 -245 0
244 228 -245 0
-245 -229 246 0
-245 229 -246 0
245 -229 246 0
245 229 -246 0
-246 -230 -247 0
-246 230 247 0
246 -230 -247 0
246 230 -247 0
-247 -231 -248 0
-247 231 -248 0
247 -231 248 0
247 231 248 0
-248 -232 -249 0
-248 232 249 0
248 -232 -249 0
248 232 249 0
-249 -233 -1222 250 0
-249 -233 1222 -250 0
-249 233 -1223 250 0
-249 233 1223 -250 0
249 -233 -1224 250 0
249 -233 1224 -250 0
249 233 -1225 250 0
249 233 1225 -250 0
-250 -234 251 0
-250 234 251 0
250 -234 251 0
250 234 -251 0
-251 -235 -252 0
-251 235 252 0
251 -235 252 0
251 235 -252 0
-252 -236 253 0
-252 236 -253 0
252 -236 -253 0
252 236 253 0
-253 -237 -254 0
-253 237 254 0
253 -237 -254 0
253 237 -254 0
-254 -238 -255 0
-254 238 255 0
254 -238 -255 0
254 238 255 0
-239 -256 0
239 256 0
-256 -240 257 0
-256 240 -257 0
256 -240 -257 0
256 240 -257 0
-257 -241 258 0
-257 241 258 0
257 -241 -258 0
257 241 258 0
-258 -242 -259 0
-258 242 259 0
258 -242 -259 0
258 242 -259 0
-259 -243 -260 0
-259 243 -260 0
259 -243 -260 0
259 243 260 0
-260 -244 -1264 261 0
-260 -244 1264 -261 0
-260 244 -1265 261 0
-260 244 1265 -261 0
260 -244 -1266 261 0
260 -244 1266 -261 0
260 244 -1267 261 0
260 244 1267 -261 0
-261 -245 262 0
-261 245 -262 0
261 -245 -262 0
261 245 262 0
-262 -246 263 0
-262 246 -263 0
262 -246 263 0
262 246 -263 0
-263 -247 264 0
-263 247 264 0
263 -247 -264 0
263 247 264 0
-264 -248 -265 0
-264 248 265 0
264 -248 -265 0
264 248 -265 0
-265 -249 -266 0
-265 249 266 0
265 -249 266 0
265 249 -266 0
-266 -250 -267 0
-266 250 -267 0
266 -250 267 0
266 250 -267 0
-267 -251 -268 0
-267 251 -268 0
267 -251 -268 0
267 251 268 0
-268 -252 269 0
-268 252 -269 0
268 -252 269 0
268 252 269 0
-269 -253 -270 0
-269 253 270 0
269 -253 -270 0
269 253 270 0
-270 -254 -271 0
-270 254 271 0
270 -254 -271 0
270 254 271 0
-271 -255 -272 0
-271 255 -272 0
271 -255 -272 0
271 255 272 0
-256 -273 0
256 273 0
-273 -257 -274 0
-273 257 -274 0
273 -257 274 0
273 257 -274 0
-274 -258 275 0
-274 258 -275 0
274 -258 -275 0
274 258 275 0
-275 -259 -276 0
-275 259 -276 0
275 -259 276 0
275 259 -276 0
-276 -260 -277 0
-276 260 277 0
276 -260 277 0
276 260 -277 0
-277 -261 -278 0
-277 261 -278 0
277 -261 -278 0
277 261 278 0
-278 -262 -279 0
-278 262 279 0
278 -262 279 0
278 262 279 0
-279 -263 -280 0
-279 263 280 0
279 -263 280 0
279 263 280 0
-280 -264 -281 0
-280 264 281 0
280 -264 281 0
280 264 -281 0
-281 -265 282 0
-281 265 -282 0
281 -265 -282 0
281 265 -282 0
-282 -266 -283 0
-282 266 -283 0
282 -266 283 0
282 266 283 0
-283 -267 284 0
-283 267 -284 0
283 -267 -284 0
283 267 284 0
-284 -268 -285 0
-284 268 285 0
284 -268 -285 0
284 268 -285 0
-285 -269 -1362 286 0
-285 -269 1362 -286 0
-285 269 -1363 286 0
-285 269 1363 -286 0
285 -269 -1364 286 0
285 -269 1364 -286 0
285 269 -1365 286 0
285 269 1365 -286 0
-286 -270 -287 0
-286 270 287 0
286 -270 287 0
286 270 -287 0
-287 -271 -288 0
-287 271 -288 0
287 -271 288 0
287 271 -288 0
-288 -272 289 0
-288 272 -289 0
288 -272 -289 0
288 272 -289 0
289 0
