data/benchmarks/bayes/90-17-2-q.gr
p tw 1377 1220
36 53
180 1019
31 374
67 68
214 230
99 100
247 264
96 113
181 956
18 35
159 160
218 1103
8 9
188 205
57 539
40 41
21 37
251 252
100 101
7 300
132 133
96 625
129 146
33 447
219 1104
5 339
192 193
10 27
41 42
221 238
73 74
99 639
284 285
133 134
131 829
162 179
14 15
21 338
75 547
225 226
43 60
198 1026
74 75
254 271
72 532
106 107
103 120
166 167
15 16
195 212
184 966
47 48
226 227
258 259
107 108
88 104
136 153
199 200
269 286
147 827
180 196
48 49
174 930
228 245
29 45
80 81
77 94
259 260
272 288
140 141
158 931
121 137
106 664
169 186
219 1108
232 233
170 914
166 962
81 82
213 229
261 278
62 78
110 127
203 1109
249 1225
173 174
243 260
286 1363
22 23
202 219
47 434
3 19
60 553
51 68
233 234
265 266
30 372
246 262
114 115
95 111
143 160
155 171
206 207
187 203
55 56
235 252
36 52
266 267
31 373
247 263
96 112
147 148
181 955
95 623
128 144
235 1164
218 1102
59 548
207 208
182 1027
239 240
220 236
268 285
71 531
244 1267
96 624
129 145
161 177
5 338
219 1103
10 26
240 241
221 237
116 709
99 638
253 269
102 118
25 42
181 182
131 828
162 178
194 210
75 546
43 59
20 332
273 274
254 270
72 531
40 408
135 151
4 333
214 215
17 34
100 706
195 211
227 243
76 92
109 126
136 152
95 627
168 184
21 22
201 218
14 373
50 67
228 244
260 276
77 93
113 114
142 159
158 930
169 185
205 206
54 55
170 913
83 100
261 277
110 126
146 147
180 954
98 637
202 1103
249 1224
175 192
286 1362
24 41
202 218
2 291
51 67
87 88
82 638
84 101
57 474
116 133
143 159
94 621
179 180
176 193
28 29
9 25
57 74
235 251
88 89
55 531
120 121
117 134
149 166
95 622
180 181
29 30
59 547
209 226
61 62
105 663
58 75
42 58
174 933
90 107
182 1026
121 122
71 530
268 284
150 167
134 150
2 3
122 724
213 214
31 48
241 1188
62 63
242 259
94 95
91 108
75 91
123 140
98 632
154 155
89 663
234 1167
3 4
183 200
35 36
131 827
32 49
16 32
246 247
64 81
47 437
95 96
74 540
127 128
197 1019
124 141
108 124
40 407
4 332
5 22
36 37
216 233
50 448
17 33
65 82
49 65
279 280
97 114
128 129
109 125
160 161
157 174
183 968
235 1167
233 1225
6 23
95 626
220 221
201 217
69 70
249 266
14 372
50 66
101 102
82 98
98 115
164 954
161 162
97 635
10 11
142 158
190 207
39 56
23 39
253 254
234 250
83 99
56 472
131 148
98 636
194 195
202 1102
175 191
43 44
223 240
24 40
72 89
56 72
82 637
214 1085
267 283
135 136
285 1365
57 473
116 132
286 287
164 181
94 620
176 192
227 228
208 224
76 77
256 273
57 73
100 709
287 288
55 530
183 963
168 169
149 165
197 214
30 46
209 225
260 261
105 662
241 257
257 274
90 106
196 1018
8 302
218 1167
150 166
182 198
31 47
241 1187
261 262
242 258
73 538
123 139
89 662
79 627
234 1166
183 199
231 248
215 231
49 446
153 912
64 80
74 539
197 1018
124 140
156 172
9 10
5 21
38 55
50 447
121 727
22 339
216 232
248 264
264 281
97 113
130 147
183 967
233 1224
157 173
189 205
42 43
268 269
71 88
249 265
213 1084
134 135
78 621
163 180
97 634
12 29
190 206
75 76
255 272
104 121
131 147
46 436
169 915
16 17
196 213
13 30
45 62
223 239
108 109
82 636
105 122
285 1364
137 154
164 180
269 1365
49 50
175 931
46 63
229 246
30 436
78 95
109 110
76 552
138 155
23 406
183 962
170 187
201 202
220 1109
19 36
197 213
50 51
230 247
82 83
262 279
79 96
63 79
77 553
111 128
142 143
196 1017
164 957
171 188
23 24
203 220
20 37
4 20
234 235
52 69
218 1166
83 84
263 280
115 116
112 129
144 161
167 968
175 176
56 475
24 25
204 221
56 57
236 253
53 70
37 53
260 1266
85 102
267 268
116 117
199 1027
145 162
81 635
182 965
177 194
208 209
26 43
57 58
167 168
237 254
38 54
89 90
39 409
22 338
76 547
70 86
86 103
40 472
121 726
118 135
130 146
149 150
178 195
30 31
210 227
27 44
11 27
241 242
90 91
200 201
148 828
71 87
270 287
119 136
213 1083
151 168
182 183
78 620
31 32
97 633
141 142
12 28
163 179
60 77
44 60
21 333
211 228
255 271
123 124
274 275
117 706
104 120
152 169
73 541
46 435
1 18
215 216
169 914
196 212
64 65
174 175
224 1186
45 61
244 261
93 110
49 449
153 915
285 1363
156 157
180 1018
5 6
185 202
248 249
269 1364
175 930
229 245
97 98
30 435
78 94
57 538
126 143
76 551
189 190
170 186
148 149
218 235
19 35
33 446
281 282
262 278
111 127
250 1225
222 223
218 1165
203 219
261 1267
105 727
263 279
21 337
198 1025
144 160
122 123
167 967
240 1189
260 1265
236 252
252 269
85 101
199 1026
81 634
182 964
177 193
26 42
59 76
237 253
269 285
147 826
76 546
197 1083
118 134
23 409
7 303
210 226
63 64
106 663
92 109
148 827
219 1107
270 286
151 167
4 5
184 201
203 1108
33 50
211 227
243 259
21 332
60 552
125 142
37 38
217 234
34 51
66 83
244 260
184 969
180 1017
158 175
31 372
7 24
185 201
181 954
70 71
250 267
67 84
99 116
130 131
76 550
159 176
11 12
40 475
191 208
40 57
218 234
244 1266
251 268
219 1102
5 337
100 117
132 149
163 164
116 708
99 637
166 965
192 209
44 45
224 241
41 58
25 41
73 90
105 726
21 336
133 150
198 1024
165 182
117 709
196 197
14 31
30 375
72 530
155 156
225 242
74 91
260 1264
288 289
106 123
224 1189
137 138
247 248
96 97
166 183
18 19
198 215
15 32
81 633
229 230
47 64
188 189
258 275
59 75
107 124
218 1105
139 156
197 1082
280 281
57 541
129 130
199 216
48 65
262 263
80 97
106 662
96 627
111 112
92 108
219 1106
140 157
170 912
172 189
203 204
184 200
162 163
203 1107
232 249
33 49
249 1223
81 98
144 145
60 551
254 255
2 290
75 549
103 104
125 141
84 100
20 335
22 39
173 190
236 237
217 233
195 196
265 282
66 82
114 131
177 178
184 968
158 174
206 223
7 23
117 133
55 72
269 270
95 621
250 266
118 119
228 229
59 546
99 115
77 78
147 164
182 1025
58 74
147 829
174 932
210 211
191 207
169 170
239 256
40 56
244 1265
158 933
5 336
6 301
151 152
132 148
110 111
91 107
99 636
116 707
243 244
224 240
202 203
180 957
73 89
131 826
286 1365
32 48
47 436
165 181
143 144
14 30
30 374
40 406
235 236
106 122
65 81
198 214
47 63
181 957
235 1166
6 22
95 625
218 1104
139 155
98 114
21 38
71 533
80 96
96 626
113 130
39 55
122 727
172 188
25 26
205 222
54 71
98 635
249 1222
146 163
72 88
214 1084
20 334
57 472
87 104
4 335
100 708
184 967
179 196
28 45
95 620
120 137
182 1024
257 273
180 197
174 931
14 375
61 78
272 289
158 932
121 138
6 300
153 170
241 1186
2 19
170 915
213 230
79 626
94 111
98 639
180 956
202 1105
234 1165
84 85
154 171
231 247
286 1364
47 435
74 538
217 218
35 52
197 1017
30 373
176 177
246 263
95 112
94 623
127 144
50 446
264 280
117 118
187 204
55 533
250 251
68 85
183 966
209 210
233 1223
235 1165
58 59
95 624
128 145
238 255
160 177
59 549
191 192
105 665
150 151
220 237
69 86
71 532
101 118
242 243
113 129
91 92
122 726
161 178
271 288
224 225
183 184
253 270
54 70
32 33
98 634
102 119
13 29
89 665
212 229
165 166
275 276
146 162
124 125
194 211
105 121
214 1083
20 333
216 217
40 409
65 66
87 103
135 152
4 334
46 62
245 262
198 199
276 277
100 707
179 195
157 158
227 244
28 44
6 7
76 93
138 154
186 203
220 1108
139 140
249 250
230 246
98 99
168 185
79 95
77 552
14 374
190 191
196 1016
260 277
61 77
39 40
164 956
219 236
20 36
172 173
282 283
153 169
131 132
2 18
112 128
56 474
223 224
79 625
72 73
98 638
94 110
53 69
180 955
197 1084
202 1104
204 220
234 1164
283 284
164 165
82 639
145 161
197 1016
193 210
57 475
256 257
261 1266
94 622
127 143
121 725
39 408
22 337
9 26
197 198
55 532
68 84
183 965
178 194
233 1222
27 43
257 258
238 254
160 176
119 135
105 664
213 1082
42 59
97 632
101 117
134 151
60 76
122 725
271 287
241 1189
152 168
73 540
46 434
75 92
231 232
169 913
98 633
212 228
89 664
93 109
49 448
16 33
153 914
214 1082
285 1362
74 541
1 291
38 39
108 125
264 265
269 1363
245 261
30 434
50 449
126 142
49 66
8 25
186 202
183 969
220 1107
71 72
77 551
12 13
82 99
250 1224
164 955
218 1164
219 235
78 623
104 105
23 40
234 251
167 966
13 14
240 1188
45 46
56 473
115 132
79 624
252 268
105 106
199 1025
56 73
267 284
193 209
182 963
46 47
226 243
78 79
261 1265
121 724
175 933
39 407
22 336
138 139
208 225
167 184
19 20
89 106
183 964
23 408
230 231
7 302
79 80
259 276
33 449
148 826
30 47
171 172
241 258
20 21
200 217
52 53
196 1019
8 303
263 264
112 113
182 199
141 158
73 539
53 54
233 250
169 912
34 50
145 146
215 232
49 447
153 913
174 191
180 1016
26 27
237 238
1 290
86 87
156 173
266 283
67 83
269 1362
178 179
76 549
248 265
159 175
27 28
40 474
207 224
8 24
270 271
220 1106
251 267
189 206
100 116
148 165
77 550
211 212
166 964
213 1085
192 208
60 61
250 1223
240 257
41 57
78 622
271 272
105 725
152 153
222 239
21 335
133 149
1 2
181 198
117 708
212 213
240 1187
244 245
46 437
93 94
115 131
225 241
74 90
122 139
224 1188
185 186
199 1024
166 182
214 231
31 375
15 31
81 632
182 962
226 242
245 246
258 274
126 127
261 1264
277 278
107 123
175 932
39 406
30 437
186 187
57 540
167 183
76 553
218 219
89 105
199 215
23 407
48 64
7 301
278 279
259 275
33 448
219 1105
140 156
63 80
219 220
200 216
203 1106
232 248
81 97
4 21
60 550
141 157
21 339
75 548
173 189
198 1027
22 38
167 969
252 253
72 533
233 249
265 281
114 130
260 1267
37 54
193 194
174 190
206 222
59 60
55 71
285 286
88 105
266 282
147 163
147 828
76 548
70 87
197 1085
29 46
40 473
207 223
92 93
244 1264
11 28
106 665
148 164
184 185
148 829
219 1109
33 34
116 706
166 963
250 1222
62 79
240 256
105 724
125 126
44 61
21 334
3 20
181 197
117 707
66 67
240 1186
122 138
158 159
224 1187
155 172
7 8
